(declare-const delta_param2 Int)
(declare-const delta_param1 Int)
(declare-const delta_j Int)
(declare-const delta_param2@width Int)
(declare-const delta_param2@pos Int)
(declare-const delta_param0 Int)
(declare-const delta_param1@pos Int)
(declare-const delta_param1@width Int)
(declare-const delta_param0@width Int)
(declare-const delta_param0@pos Int)
(assert (exists
         ((phi_param1?1 Int) (phi_param1@pos?2 Int) (phi_param1@width?3 Int)
            (type_err?4 Int) (type_err?5 Int) (tr?6 Int) (type_err?7 Int)
            (type_err?8 Int) (type_err?9 Int) (type_err?10 Int) (tr?11 Int)
            (tr?12 Int) (|param2@width'?13| Int) (|param1@width'?14| Int)
            (|param2@pos'?15| Int) (|param1@pos'?16| Int) (|param2'?17| Int)
            (|param1'?18| Int) (|j'?19| Int) (|param0@width'?20| Int)
            (|param0@pos'?21| Int) (|param0'?22| Int) (stderr?23 Int)
            (stderr@pos?24 Int) (stderr@width?25 Int) (nj?26 Int) (j?27 Int)
            (i?28 Int) (param2@width?29 Int) (param2@pos?30 Int)
            (param2?31 Int) (param1?32 Int) (param1@pos?33 Int)
            (param1@width?34 Int) (param0?35 Int) (param0@pos?36 Int)
            (param0@width?37 Int))
         (and (or (and (<= (- j?27) 0) (<= (- i?28) 0)
                         (< (+ (- nj?26) j?27) 0)
                         (or (< (mod i?28 20) 0) (< 0 (mod i?28 20)))
                         (= (+ (- phi_param1?1) tr?12) 0)
                         (= (+ (- phi_param1@pos?2) type_err?10) 0)
                         (= (+ (- phi_param1@width?3) type_err?8) 0))
                    (and (<= (- j?27) 0) (<= (- i?28) 0)
                           (< (+ (- nj?26) j?27) 0) (= (mod i?28 20) 0)
                           (= (+ tr?6 (- phi_param1?1)) 0)
                           (= (+ type_err?5 (- phi_param1@pos?2)) 0)
                           (= (+ type_err?4 (- phi_param1@width?3)) 0)))
                (= (+ (- type_err?7) |param2@width'?13|) 0)
                (= (+ |param1@width'?14| (- phi_param1@width?3)) 0)
                (= (+ (- stderr@width?25) |param0@width'?20|) 0)
                (= (+ (- type_err?9) |param2@pos'?15|) 0)
                (= (+ |param1@pos'?16| (- phi_param1@pos?2)) 0)
                (= (+ (- stderr@pos?24) |param0@pos'?21|) 0)
                (= (+ (- tr?11) |param2'?17|) 0)
                (= (+ |param1'?18| (- phi_param1?1)) 0)
                (= (+ (- stderr?23) |param0'?22|) 0)
                (= (+ |j'?19| (- j?27) -1) 0)
                (= delta_j (+ |j'?19| (- j?27)))
                (= delta_param0 (+ |param0'?22| (- param0?35)))
                (= delta_param1 (+ |param1'?18| (- param1?32)))
                (= delta_param2 (+ |param2'?17| (- param2?31)))
                (= delta_param0@pos (+ |param0@pos'?21| (- param0@pos?36)))
                (= delta_param1@pos (+ |param1@pos'?16| (- param1@pos?33)))
                (= delta_param2@pos (+ |param2@pos'?15| (- param2@pos?30)))
                (= delta_param0@width (+ |param0@width'?20|
                                           (- param0@width?37)))
                (= delta_param1@width (+ |param1@width'?14|
                                           (- param1@width?34)))
                (= delta_param2@width (+ |param2@width'?13|
                                           (- param2@width?29))))))
(check-sat)
